  8	54
 12
  0	 20	 17	 74	 71	 27	 39	 93	 81	 47	101	109	
 20
  0	 54	 46	 19	  3	 11	108	 65	100	 53	 13	 73	 57	 67	 50	 38	107	104	 92	109	
 16
  0	  4	 15	 58	 44	 32	 69	 98	  6	 60	 86	 51	 37	 91	105	109	
 16
  0	 41	 14	 16	 95	 68	 22	 49	 70	 48	103	 24	102	 78	 76	109	
 20
  0	 23	  1	  8	 77	 35	 55	 28	  9	 89	 62	 21	 40	 82	 10	 94	 75	 64	 63	109	
 20
  0	 42	 34	 88	 96	 33	 29	 87	 18	 43	 97	 31	 12	 85	  5	 72	 66	 83	 59	109	
  8
  0	 45	 26	 30	 99	 84	 80	109	
 12
  0	  7	 25	 36	 61	 90	 52	  2	 79	106	 56	109	
